1645.0 21045.0 77.0 
1579.0 21036.0 795.0 
1574.0 21572.0 1399.0 
1637.0 21696.0 27.0 
1621.0 21721.0 106.0 
1684.0 20836.0 363.0 
1643.0 21115.0 120.0 
1643.0 21049.0 188.0 
1649.0 21045.0 0.0 
1639.0 21197.0 0.0 
1584.0 21070.0 664.0 
1645.0 20896.0 130.0 
1610.0 21053.0 209.0 
1628.0 21208.0 92.0 
1626.0 21618.0 106.0 
1632.0 21201.0 184.0 
1614.0 21386.0 196.0 
1604.0 20648.0 448.0 
1576.0 21073.0 538.0 
1592.0 21026.0 317.0 
1612.0 21597.0 149.0 
1617.0 21365.0 145.0 
1649.0 21045.0 0.0 
1635.0 21153.0 176.0 
1614.0 20937.0 214.0 
1637.0 21940.0 0.0 
1697.0 20822.0 363.0 
1591.0 21172.0 397.0 
